% demand
num_movements = 36;
loading_factor = [1450, 1950, 1600, 1600, 1400, 1950, 1650, 800, 1400, 2000, 850, 1400, 1250, 800, 850, 1300, 800, 1650, 1600, 1700, 1500, 1100, 1800, 1600, 1000, 1900, 1400, 1850, 1550, 1450, 950, 1450, 1600, 1000, 1250, 1650];
pickup_time = [0, 0, 0, 0, 2, 2, 2, 3, 3, 3, 3, 4, 4, 4, 4, 5, 5, 6, 6, 7, 8, 8, 8, 8, 8, 10, 10, 10, 10, 11, 11, 12, 12, 12, 12, 12];
delivery_time = [1, 1, 1, 1, 3, 4, 3, 4, 4, 6, 4, 5, 8, 7, 6, 6, 6, 7, 8, 8, 10, 10, 10, 10, 9, 12, 11, 11, 12, 12, 12, 13, 13, 13, 13, 13];

% transporter definition
total_capacity = 7000;
num_decks = 3;
capacity = [3000, 1000, 3000];

% ways out of decks
num_ways_out = 1;
paths_out = array3d(decks, ways_out, decks, [
% ways out of deck d1
2, 3, 0, 

% ways out of deck d2
3, 0, 0, 

% ways out of deck d3
0, 0, 0,	

]);

